Instancias/Instancias_pequeñas/instance6B.dat
6 

0 45 34 99 67 28 
89 0 44 61 26 45 
39 74 0 74 4 89 
43 46 96 0 87 11 
87 14 86 31 0 79 
73 9 1 52 27 0 

0 71 59 66 35 30 
52 0 4 71 78 11 
39 34 0 2 15 18 
26 5 34 0 92 31 
73 25 84 68 0 65 
56 17 54 87 44 0 
