Soluciones/instance6B.out
56602 0.000556
6
3 0 5 1 2 4 